Cu8 Se4                                 
   1.00000000000000     
     5.7992972998065682   -0.0000000000000000    0.0000000000000000
    -0.0000000000000000    5.7992972998065682    0.0000000000000000
    -0.0000000000000000    0.0000000000000000    5.7992972998065682
   Cu   Se
     8     4
Direct
  0.4999999999308500  0.0000000000000000  0.0000000000000000
  0.2500000000518625  0.2500000000518625  0.2500000000518625
  0.4999999999308500  0.4999999999308500  0.4999999999308500
  0.2500000000518625  0.7499999999827125  0.7499999999827125
 -0.0000000000000000  0.0000000000000000  0.4999999999308500
  0.7499999999827125  0.2500000000518625  0.7499999999827125
  0.0000000000000000  0.4999999999308500  0.0000000000000000
  0.7499999999827125  0.7499999999827125  0.2500000000518625
 -0.0000000000000000 -0.0000000000000000  0.0000000000000000
  0.0000000000000000  0.4999999999308500  0.4999999999308500
  0.4999999999308500 -0.0000000000000000  0.4999999999308500
  0.4999999999308500  0.4999999999308500  0.0000000000000000
 
  0.00000000E+00  0.00000000E+00  0.00000000E+00
  0.00000000E+00  0.00000000E+00  0.00000000E+00
  0.00000000E+00  0.00000000E+00  0.00000000E+00
  0.00000000E+00  0.00000000E+00  0.00000000E+00
  0.00000000E+00  0.00000000E+00  0.00000000E+00
  0.00000000E+00  0.00000000E+00  0.00000000E+00
  0.00000000E+00  0.00000000E+00  0.00000000E+00
  0.00000000E+00  0.00000000E+00  0.00000000E+00
  0.00000000E+00  0.00000000E+00  0.00000000E+00
  0.00000000E+00  0.00000000E+00  0.00000000E+00
  0.00000000E+00  0.00000000E+00  0.00000000E+00
  0.00000000E+00  0.00000000E+00  0.00000000E+00
