Cu8 Se4
1.0
        5.7845301628         0.0000000000         0.0000000000
        0.0000000000         5.7845301628         0.0000000000
        0.0000000000         0.0000000000         5.7845301628
   Cu   Se
    8    4
Cartesian
     2.892265081         0.000000000         0.000000000
     1.446132541         1.446132541         1.446132541
     2.892265081         2.892265081         2.892265081
     1.446132541         4.338397622         4.338397622
     0.000000000         0.000000000         2.892265081
     4.338397622         1.446132541         4.338397622
     0.000000000         2.892265081         0.000000000
     4.338397622         4.338397622         1.446132541
     0.000000000         0.000000000         0.000000000
     0.000000000         2.892265081         2.892265081
     2.892265081         0.000000000         2.892265081
     2.892265081         2.892265081         0.000000000
